(set-option :produce-models true)
(set-logic QF_UF)
(declare-fun p4() Bool)
(declare-fun p19() Bool)
(declare-fun p6() Bool)
(declare-fun p9() Bool)
(declare-fun p12() Bool)
(declare-fun p8() Bool)
(declare-fun p17() Bool)
(declare-fun p14() Bool)
(declare-fun p10() Bool)
(declare-fun p13() Bool)
(declare-fun p5() Bool)
(declare-fun p11() Bool)
(declare-fun p16() Bool)
(declare-fun p2() Bool)
(declare-fun p7() Bool)
(declare-fun p0() Bool)
(declare-fun p15() Bool)
(declare-fun p3() Bool)
(declare-fun p18() Bool)
(declare-fun p1() Bool)
(assert
(and (or (not p4) p19 p6) (or (not p19) p9 p12) (or (not p8) (not p19) p4) (or (not p17) p4 p19) (or p14 p10 p13) (or p6 (not p8) p5) (or (not p11) p8 (not p17)) (or (not p16) p14 (not p2)) (or (not p5) (not p9) (not p7)) (or (not p4) (not p16) p12) (or p19 p11 (not p9)) (or p6 (not p0) (not p8)) (or p8 p13 p7) (or (not p5) (not p10) (not p11)) (or p10 (not p12) (not p16)) (or p16 p16 p15) (or (not p4) p3 (not p14)) (or p16 (not p17) (not p13)) (or p19 (not p5) (not p7)) (or p9 p2 (not p16)) (or (not p11) (not p4) p6) (or p2 p17 (not p5)) (or (not p15) (not p3) (not p17)) (or (not p14) (not p18) (not p16)) (or p6 (not p5) (not p15)) (or (not p12) p5 p10) (or (not p4) (not p3) (not p18)) (or p14 (not p10) (not p1)) (or p4 p14 p9) (or (not p13) (not p0) (not p13)) (or p12 p2 p6) (or (not p19) (not p2) (not p10)) (or (not p10) p12 (not p6)) (or p15 p2 (not p11)) (or p19 p11 (not p19)) (or p9 p13 (not p16)) (or (not p3) (not p7) (not p3)) (or (not p9) p11 (not p8)) (or p7 p11 (not p16)) (or (not p6) (not p13) (not p3)) (or (not p2) p3 p1) (or (not p7) p6 p1) (or (not p5) p15 p4) (or p0 p14 (not p1)) (or (not p13) (not p18) (not p17)) (or (not p14) p8 (not p3)) (or (not p5) p18 p6) (or (not p11) p3 p1) (or p2 p18 (not p13)) (or (not p6) (not p18) p9) (or (not p12) (not p15) p12) (or (not p14) p10 p7) (or (not p8) p0 (not p10)) (or p9 (not p1) (not p13)) (or p10 p6 (not p12)) (or p1 p6 p15) (or (not p6) (not p8) p3) (or (not p2) p1 (not p18)) (or (not p7) (not p3) (not p3)) (or p9 p4 (not p5)) (or p16 (not p6) p17) (or (not p8) p2 p18) (or (not p2) p13 (not p0)) (or p17 p16 (not p17)) (or p3 (not p19) p6) (or p2 p16 (not p19)) (or p1 (not p5) (not p8)) (or (not p14) p18 (not p4)) (or (not p16) p9 (not p8)) (or p0 (not p12) p7) (or p5 (not p18) (not p17)) (or (not p2) p1 (not p7)) (or (not p10) p17 p2) (or (not p15) p16 (not p18)) (or p13 p0 (not p18)) (or (not p5) p3 p19) (or p4 (not p18) (not p13)) (or p14 (not p0) p0) (or p14 p13 p18) (or p3 p11 p15) (or p14 p3 (not p5)) (or p17 p11 p5) (or p2 p16 (not p17)) (or (not p18) (not p12) p15) (or p7 p7 p8) (or p15 p6 p17) (or (not p10) p1 p15))
)
(check-sat)
(get-model)
